c instance by G2
c solution = 000011111
c Known solution cost is 417 
p cnf 9 30
w 8 66 35 54 61 67 82 8 36
6 -8 -7 0
3 8 9 0
-6 7 1 0
2 -7 -3 0
-2 1 -3 0
3 2 -1 0
-8 5 -4 0
-5 1 -2 0
8 7 -2 0
-7 -9 -1 0
2 9 8 0
9 -8 -4 0
-3 2 -6 0
8 5 -7 0
8 1 -4 0
-4 1 -2 0
9 2 4 0
3 8 -5 0
-4 -5 -8 0
-3 1 7 0
4 2 -1 0
2 1 5 0
-7 -5 8 0
-4 8 -6 0
-6 -2 3 0
-6 -5 9 0
5 -2 1 0
9 3 -7 0
-8 -1 -5 0
6 4 3 0
